Version identifier: 20.1.0.0 | 2020-11-10 | 9bedb6d68
Tried aggregator 2 times.
MIP Presolve eliminated 1184 rows and 583 columns.
MIP Presolve modified 3096 coefficients.
Aggregator did 146 substitutions.
Reduced MIP has 1879 rows, 1486 columns, and 6178 nonzeros.
Reduced MIP has 311 binaries, 1175 generals, 0 SOSs, and 0 indicators.
Presolve time = 0.02 sec. (7.12 ticks)
Found incumbent of value 2766.000000 after 0.03 sec. (14.64 ticks)
Probing fixed 40 vars, tightened 431 bounds.
Probing time = 0.00 sec. (1.24 ticks)
Tried aggregator 2 times.
Detecting symmetries...
MIP Presolve eliminated 786 rows and 52 columns.
MIP Presolve modified 163 coefficients.
Aggregator did 8 substitutions.
Reduced MIP has 1085 rows, 1426 columns, and 3550 nonzeros.
Reduced MIP has 405 binaries, 1021 generals, 0 SOSs, and 0 indicators.
Presolve time = 0.01 sec. (4.89 ticks)
Probing time = 0.00 sec. (0.27 ticks)
Clique table members: 5.
MIP emphasis: balance optimality and feasibility.
MIP search method: dynamic search.
Parallel mode: deterministic, using up to 24 threads.
Root relaxation solution time = 0.01 sec. (3.29 ticks)

        Nodes                                         Cuts/
   Node  Left     Objective  IInf  Best Integer    Best Bound    ItCnt     Gap

*     0+    0                         2766.0000        0.0000           100.00%
*     0+    0                           49.0000        0.0000           100.00%
      0     0        0.0000    46       49.0000        0.0000      356  100.00%
      0     0        0.0000    53       49.0000     Cuts: 125      473  100.00%
      0     0        0.1667   117       49.0000      Cuts: 55      863   99.66%
      0     0        0.5000   126       49.0000      Cuts: 58      905   98.98%
      0     0        0.5000   201       49.0000      Cuts: 31      951   98.98%
*     0+    0                           25.0000        0.5000            98.00%
*     0+    0                           16.0000        0.5000            96.87%
      0     0        cutoff             16.0000       16.0000      951    0.00%
Elapsed time = 1.04 sec. (122.89 ticks, tree = 0.01 MB, solutions = 4)

Implied bound cuts applied:  33
Flow cuts applied:  3
Mixed integer rounding cuts applied:  12
Zero-half cuts applied:  58
Lift and project cuts applied:  13
Gomory fractional cuts applied:  16

Root node processing (before b&c):
  Real time             =    1.04 sec. (123.02 ticks)
Parallel b&c, 24 threads:
  Real time             =    0.00 sec. (0.00 ticks)
  Sync time (average)   =    0.00 sec.
  Wait time (average)   =    0.00 sec.
                          ------------
Total (root+branch&cut) =    1.04 sec. (123.02 ticks)

Solution status = Optimal
Solution LB = 16
Solution UB = 16
Runtime = 1.04679 seconds
	Command being timed: "/home/min/git_repos/CS598MEBProject/CNT-ILP/build/cnt -s 2 ./output/k8_n20/simC_c1_k8_n20_u3_s1_del04.input-left.cnp"
	User time (seconds): 16.75
	System time (seconds): 0.08
	Percent of CPU this job got: 1543%
	Elapsed (wall clock) time (h:mm:ss or m:ss): 0:01.09
	Average shared text size (kbytes): 0
	Average unshared data size (kbytes): 0
	Average stack size (kbytes): 0
	Average total size (kbytes): 0
	Maximum resident set size (kbytes): 105700
	Average resident set size (kbytes): 0
	Major (requiring I/O) page faults: 0
	Minor (reclaiming a frame) page faults: 23483
	Voluntary context switches: 6048
	Involuntary context switches: 2703
	Swaps: 0
	File system inputs: 0
	File system outputs: 16
	Socket messages sent: 0
	Socket messages received: 0
	Signals delivered: 0
	Page size (bytes): 4096
	Exit status: 0
